* ENCODING=ISO-8859-1
NAME          CPLEX
ROWS
 N  obj1    
 G  c1      
 G  c2      
 G  c3      
 G  c4      
 G  c5      
 G  c6      
 G  c7      
 G  c8      
 G  c9      
 G  c10     
 G  c11     
 G  c12     
 G  c13     
 G  c14     
 G  c15     
 G  c16     
 G  c17     
 G  c18     
 G  c19     
 G  c20     
 G  c21     
 G  c22     
 G  c23     
 G  c24     
 G  c25     
 G  c26     
 G  c27     
 G  c28     
 G  c29     
 G  c30     
 G  c31     
 G  c32     
 G  c33     
 G  c34     
 G  c35     
 G  c36     
 G  c37     
 G  c38     
 G  c39     
 G  c40     
 G  c41     
 G  c42     
 G  c43     
 G  c44     
 G  c45     
 G  c46     
 G  c47     
 G  c48     
 G  c49     
 G  c50     
 G  c51     
 G  c52     
 G  c53     
 G  c54     
 G  c55     
 G  c56     
 G  c57     
 G  c58     
 G  c59     
 G  c60     
 G  c61     
 G  c62     
 G  c63     
 G  c64     
 G  c65     
 G  c66     
 G  c67     
 G  c68     
 G  c69     
 G  c70     
COLUMNS
    MARK0000  'MARKER'                 'INTORG'
    x1        obj1                            1
    x1        c4                            352
    x1        c13                           335
    x1        c15                           121
    x1        c18                           532
    x1        c31                           191
    x2        obj1                            1
    x2        c9                            578
    x2        c18                           463
    x2        c38                           704
    x2        c39                           336
    x2        c40                           273
    x2        c70                           161
    x3        obj1                            1
    x3        c18                           742
    x3        c23                           940
    x3        c27                           385
    x3        c33                           796
    x3        c44                           745
    x3        c53                           810
    x3        c55                           453
    x3        c58                           366
    x4        obj1                            1
    x4        c2                            628
    x4        c36                           169
    x4        c41                           893
    x4        c42                           882
    x4        c43                           771
    x4        c54                           787
    x4        c66                           266
    x5        obj1                            1
    x5        c12                           769
    x5        c32                           293
    x5        c39                           240
    x5        c49                           736
    x5        c50                           472
    x5        c53                           465
    x5        c66                           942
    x6        obj1                            1
    x6        c10                           445
    x6        c12                           886
    x6        c28                           153
    x6        c33                           390
    x6        c39                           200
    x6        c55                           274
    x6        c65                           895
    x6        c68                           226
    x7        obj1                            1
    x7        c8                            689
    x7        c13                           923
    x7        c48                           171
    x8        obj1                            1
    x8        c5                            928
    x8        c26                           952
    x8        c51                           591
    x8        c54                           823
    x8        c58                           826
    x8        c59                           957
    x8        c61                           539
    x8        c62                           396
    x9        obj1                            1
    x9        c13                           408
    x9        c26                           817
    x9        c36                           125
    x9        c40                           485
    x9        c43                           484
    x9        c56                           836
    x9        c69                           737
    x10       obj1                            1
    x10       c3                            897
    x10       c6                            772
    x10       c9                            324
    x10       c17                           200
    x10       c21                           969
    x10       c30                           642
    x10       c35                           181
    x10       c41                           623
    x10       c42                           262
    x10       c65                           746
    x11       obj1                            1
    x11       c17                           877
    x11       c27                           302
    x11       c31                           558
    x11       c33                           390
    x11       c43                           208
    x11       c52                           916
    x11       c53                           244
    x11       c62                           341
    x11       c63                           389
    x11       c64                           351
    x11       c65                           203
    x12       obj1                            1
    x12       c3                            430
    x12       c5                            258
    x12       c23                           441
    x12       c38                           298
    x12       c44                           983
    x12       c47                           888
    x12       c56                           982
    x12       c65                           709
    x13       obj1                            1
    x13       c8                            889
    x13       c29                           207
    x14       obj1                            1
    x14       c5                            544
    x14       c31                           843
    x14       c42                           549
    x14       c56                           253
    x14       c69                           833
    x15       obj1                            1
    x15       c7                            428
    x15       c11                           296
    x15       c23                           531
    x15       c28                           425
    x15       c35                           705
    x15       c42                           969
    x15       c68                           341
    x15       c70                           966
    x16       obj1                            1
    x16       c4                            841
    x16       c7                            391
    x16       c29                           872
    x16       c41                           102
    x16       c45                           617
    x16       c46                           424
    x16       c50                           961
    x16       c58                           941
    x16       c62                           402
    x17       obj1                            1
    x17       c2                            481
    x17       c4                            334
    x17       c14                           542
    x17       c19                           931
    x17       c49                           468
    x17       c60                           202
    x17       c61                           395
    x17       c70                           485
    x18       obj1                            1
    x18       c7                            585
    x18       c10                           640
    x18       c13                           239
    x18       c20                           908
    x18       c43                           701
    x18       c51                           662
    x19       obj1                            1
    x19       c8                            142
    x19       c18                           184
    x19       c23                           276
    x19       c27                           451
    x19       c32                           930
    x19       c40                           867
    x19       c48                           615
    x19       c50                           251
    x19       c60                           106
    x19       c70                           683
    x20       obj1                            1
    x20       c3                            696
    x20       c9                            881
    x20       c24                           278
    x20       c38                           552
    x20       c52                           801
    x20       c59                           138
    x20       c60                           997
    x20       c64                           837
    x21       obj1                            1
    x21       c1                            723
    x21       c36                           295
    x22       obj1                            1
    x22       c1                            477
    x22       c9                            877
    x22       c20                           671
    x22       c38                           498
    x22       c46                           937
    x22       c47                           329
    x22       c56                           212
    x22       c63                           454
    x22       c64                           802
    x22       c65                           108
    x23       obj1                            1
    x23       c27                           993
    x23       c46                           532
    x23       c58                           509
    x23       c68                           850
    x24       obj1                            1
    x24       c11                           906
    x24       c26                           682
    x24       c42                           408
    x24       c44                           191
    x24       c51                           382
    x24       c64                           995
    x24       c65                           421
    x24       c68                           437
    x25       obj1                            1
    x25       c6                            710
    x25       c10                           418
    x25       c18                           252
    x25       c25                           584
    x25       c48                           331
    x25       c55                           911
    x25       c69                           171
    x25       c70                           929
    x26       obj1                            1
    x26       c1                            908
    x26       c16                           908
    x26       c36                           158
    x26       c39                           893
    x26       c40                           785
    x26       c46                           625
    x26       c47                           621
    x26       c57                           661
    x26       c65                           705
    x27       obj1                            1
    x27       c1                            485
    x27       c19                           800
    x27       c34                           426
    x27       c39                           883
    x27       c42                           649
    x27       c53                           271
    x27       c60                           694
    x27       c63                           484
    x27       c65                           306
    x27       c68                           923
    x28       obj1                            1
    x28       c7                            563
    x28       c15                           653
    x28       c19                           525
    x28       c20                           139
    x28       c29                           626
    x28       c30                           137
    x28       c47                           910
    x28       c60                           287
    x28       c62                           161
    x28       c70                           382
    x29       obj1                            1
    x29       c15                           501
    x29       c22                           693
    x29       c28                           949
    x29       c35                           873
    x29       c37                           479
    x29       c46                           644
    x29       c52                           202
    x29       c54                           758
    x29       c63                           592
    x30       obj1                            1
    x30       c2                            587
    x30       c3                            810
    x30       c5                            369
    x30       c20                           403
    x30       c49                           949
    x30       c58                           124
    x30       c67                           914
    x31       obj1                            1
    x31       c6                            146
    x31       c11                           102
    x31       c17                           332
    x31       c34                           909
    x31       c38                           760
    x31       c39                           887
    x31       c40                           838
    x31       c51                           640
    x31       c54                           535
    x31       c57                           106
    x31       c61                           882
    x32       obj1                            1
    x32       c31                           442
    x32       c49                           946
    x32       c52                           985
    x33       obj1                            1
    x33       c8                            186
    x33       c22                           651
    x33       c27                           102
    x33       c28                           197
    x33       c33                           517
    x33       c37                           207
    x33       c50                           137
    x34       obj1                            1
    x34       c1                            938
    x34       c29                           275
    x34       c60                           890
    x34       c65                           238
    x34       c69                           292
    x35       obj1                            1
    x35       c3                            838
    x35       c26                           218
    x35       c42                           202
    x35       c51                           161
    x35       c54                           776
    x36       obj1                            1
    x36       c5                            264
    x36       c20                           957
    x36       c37                           473
    x36       c48                           905
    x36       c70                           207
    x37       obj1                            1
    x37       c1                            851
    x37       c6                            187
    x37       c27                           228
    x37       c69                           336
    x38       obj1                            1
    x38       c6                            782
    x38       c7                            365
    x38       c8                            866
    x38       c18                           736
    x38       c44                           883
    x38       c55                           129
    x38       c61                           312
    x38       c63                           733
    x39       obj1                            1
    x39       c1                            107
    x39       c4                            914
    x39       c41                           340
    x39       c44                           767
    x39       c49                           287
    x40       obj1                            1
    x40       c7                            703
    x40       c12                           947
    x40       c14                           928
    x40       c27                           470
    x40       c32                           366
    x40       c33                           706
    x40       c59                           186
    x41       obj1                            1
    x41       c4                            608
    x41       c7                            726
    x41       c8                            987
    x41       c11                           543
    x41       c13                           655
    x41       c26                           949
    x41       c33                           482
    x41       c34                           795
    x41       c35                           612
    x41       c41                           615
    x41       c47                           172
    x41       c49                           669
    x41       c67                           524
    x42       obj1                            1
    x42       c8                            273
    x42       c13                           136
    x42       c31                           785
    x42       c34                           447
    x42       c42                           114
    x43       obj1                            1
    x43       c7                            106
    x43       c14                           242
    x43       c32                           105
    x43       c38                           168
    x43       c40                           608
    x43       c52                           411
    x43       c67                           312
    x44       obj1                            1
    x44       c13                           311
    x44       c17                           827
    x44       c34                           706
    x44       c56                           635
    x45       obj1                            1
    x45       c3                            282
    x45       c4                            181
    x45       c13                           572
    x45       c28                           986
    x45       c39                           185
    x45       c40                           829
    x45       c56                           205
    x45       c69                           753
    x46       obj1                            1
    x46       c1                            888
    x46       c5                            244
    x46       c10                           630
    x46       c11                           850
    x46       c16                           681
    x46       c22                           490
    x46       c33                           782
    x46       c53                           715
    x46       c54                           744
    x46       c64                           799
    x46       c66                           989
    x46       c69                           606
    x47       obj1                            1
    x47       c9                            703
    x47       c26                           848
    x47       c31                           286
    x48       obj1                            1
    x48       c2                            238
    x48       c3                            133
    x48       c17                           962
    x48       c25                           901
    x48       c33                           669
    x48       c47                           187
    x48       c51                           994
    x48       c53                           358
    x48       c66                           716
    x48       c70                           818
    x49       obj1                            1
    x49       c2                            971
    x49       c15                           152
    x49       c20                           552
    x49       c29                           418
    x49       c39                           558
    x49       c43                           717
    x49       c56                           944
    x49       c68                           999
    x50       obj1                            1
    x50       c2                            981
    x50       c4                            625
    x50       c20                           777
    x50       c32                           458
    x50       c44                           776
    x50       c46                           448
    x50       c49                           448
    x50       c55                           499
    x50       c56                           720
    x51       obj1                            1
    x51       c17                           357
    x51       c23                           562
    x51       c24                           314
    x51       c33                           251
    x51       c46                           259
    x52       obj1                            1
    x52       c11                           281
    x52       c18                           567
    x52       c28                           683
    x52       c30                           761
    x52       c53                           480
    x53       obj1                            1
    x53       c26                           328
    x53       c33                           156
    x53       c46                           278
    x53       c53                           893
    x53       c60                           499
    x53       c66                           181
    x54       obj1                            1
    x54       c5                            958
    x54       c10                           227
    x54       c17                           261
    x54       c25                           838
    x54       c39                           926
    x54       c47                           581
    x55       obj1                            1
    x55       c44                           509
    x55       c55                           114
    x55       c68                           418
    x56       obj1                            1
    x56       c6                            716
    x56       c19                           360
    x56       c21                           374
    x56       c22                           621
    x56       c25                           260
    x56       c27                           627
    x56       c39                           815
    x56       c45                           939
    x56       c47                           501
    x56       c55                           634
    x57       obj1                            1
    x57       c5                            645
    x57       c13                           473
    x57       c16                           257
    x57       c19                           343
    x57       c22                           327
    x57       c24                           514
    x57       c31                           568
    x57       c48                           931
    x57       c57                           399
    x57       c66                           977
    x58       obj1                            1
    x58       c3                            850
    x58       c12                           752
    x58       c13                           643
    x58       c14                           347
    x58       c34                           971
    x58       c44                           314
    x58       c50                           916
    x58       c52                           644
    x58       c60                           441
    x58       c67                           550
    x59       obj1                            1
    x59       c31                           291
    x59       c32                           636
    x59       c35                           392
    x59       c43                           344
    x59       c49                           559
    x60       obj1                            1
    x60       c2                            461
    x60       c3                            248
    x60       c7                            495
    x60       c26                           730
    x60       c36                           489
    x60       c38                           762
    x60       c43                           503
    x60       c49                           832
    x61       obj1                            1
    x61       c16                           912
    x61       c35                           443
    x61       c40                           180
    x61       c43                           145
    x61       c44                           273
    x61       c45                           228
    x61       c54                           538
    x61       c64                           406
    x62       obj1                            1
    x62       c12                           976
    x62       c16                           327
    x62       c32                           689
    x62       c38                           523
    x62       c45                           576
    x62       c47                           431
    x62       c56                           897
    x63       obj1                            1
    x63       c3                            215
    x63       c19                           668
    x63       c35                           177
    x63       c63                           865
    x63       c68                           793
    x63       c69                           680
    x64       obj1                            1
    x64       c1                            166
    x64       c23                           205
    x64       c30                           317
    x64       c37                           456
    x65       obj1                            1
    x65       c7                            421
    x65       c28                           405
    x65       c30                           752
    x65       c52                           561
    x65       c61                           577
    x66       obj1                            1
    x66       c2                            712
    x66       c8                            667
    x66       c21                           295
    x66       c55                           291
    x66       c58                           606
    x66       c63                           785
    x67       obj1                            1
    x67       c21                           479
    x67       c32                           346
    x67       c59                           148
    x67       c60                           679
    x68       obj1                            1
    x68       c12                           905
    x68       c15                           281
    x68       c23                           597
    x68       c28                           594
    x68       c40                           726
    x68       c42                           789
    x68       c52                           670
    x68       c65                           673
    x69       obj1                            1
    x69       c9                            884
    x69       c16                           245
    x69       c17                           906
    x69       c19                           146
    x69       c32                           278
    x69       c34                           443
    x69       c36                           237
    x69       c47                           592
    x69       c57                           629
    x69       c63                           766
    x70       obj1                            1
    x70       c19                           770
    x70       c24                           606
    x70       c26                           175
    x70       c42                           782
    x70       c43                           891
    x70       c46                           305
    x70       c49                           395
    x70       c53                           759
    MARK0001  'MARKER'                 'INTEND'
RHS
    rhs       c1                           2772
    rhs       c2                           2530
    rhs       c3                           2700
    rhs       c4                           1928
    rhs       c5                           2105
    rhs       c6                           1657
    rhs       c7                           2392
    rhs       c8                           2350
    rhs       c9                           2124
    rhs       c10                          1180
    rhs       c11                          1489
    rhs       c12                          2618
    rhs       c13                          2348
    rhs       c14                          1030
    rhs       c15                           854
    rhs       c16                          1665
    rhs       c17                          2361
    rhs       c18                          1738
    rhs       c19                          2272
    rhs       c20                          2204
    rhs       c21                          1059
    rhs       c22                          1391
    rhs       c23                          1776
    rhs       c24                           856
    rhs       c25                          1292
    rhs       c26                          2850
    rhs       c27                          1779
    rhs       c28                          2196
    rhs       c29                          1199
    rhs       c30                          1305
    rhs       c31                          1982
    rhs       c32                          2051
    rhs       c33                          2570
    rhs       c34                          2349
    rhs       c35                          1692
    rhs       c36                           737
    rhs       c37                           808
    rhs       c38                          2133
    rhs       c39                          2962
    rhs       c40                          2796
    rhs       c41                          1287
    rhs       c42                          2803
    rhs       c43                          2382
    rhs       c44                          2721
    rhs       c45                          1180
    rhs       c46                          2226
    rhs       c47                          2606
    rhs       c48                          1477
    rhs       c49                          3145
    rhs       c50                          1369
    rhs       c51                          1715
    rhs       c52                          2595
    rhs       c53                          2498
    rhs       c54                          2481
    rhs       c55                          1653
    rhs       c56                          2842
    rhs       c57                           898
    rhs       c58                          1686
    rhs       c59                           715
    rhs       c60                          2398
    rhs       c61                          1353
    rhs       c62                           650
    rhs       c63                          2534
    rhs       c64                          2095
    rhs       c65                          2502
    rhs       c66                          2036
    rhs       c67                          1150
    rhs       c68                          2494
    rhs       c69                          2204
    rhs       c70                          2316
BOUNDS
 LI bnd       x1        0
 LI bnd       x2        0
 LI bnd       x3        0
 LI bnd       x4        0
 LI bnd       x5        0
 LI bnd       x6        0
 LI bnd       x7        0
 LI bnd       x8        0
 LI bnd       x9        0
 LI bnd       x10       0
 LI bnd       x11       0
 LI bnd       x12       0
 LI bnd       x13       0
 LI bnd       x14       0
 LI bnd       x15       0
 LI bnd       x16       0
 LI bnd       x17       0
 LI bnd       x18       0
 LI bnd       x19       0
 LI bnd       x20       0
 LI bnd       x21       0
 LI bnd       x22       0
 LI bnd       x23       0
 LI bnd       x24       0
 LI bnd       x25       0
 LI bnd       x26       0
 LI bnd       x27       0
 LI bnd       x28       0
 LI bnd       x29       0
 LI bnd       x30       0
 LI bnd       x31       0
 LI bnd       x32       0
 LI bnd       x33       0
 LI bnd       x34       0
 LI bnd       x35       0
 LI bnd       x36       0
 LI bnd       x37       0
 LI bnd       x38       0
 LI bnd       x39       0
 LI bnd       x40       0
 LI bnd       x41       0
 LI bnd       x42       0
 LI bnd       x43       0
 LI bnd       x44       0
 LI bnd       x45       0
 LI bnd       x46       0
 LI bnd       x47       0
 LI bnd       x48       0
 LI bnd       x49       0
 LI bnd       x50       0
 LI bnd       x51       0
 LI bnd       x52       0
 LI bnd       x53       0
 LI bnd       x54       0
 LI bnd       x55       0
 LI bnd       x56       0
 LI bnd       x57       0
 LI bnd       x58       0
 LI bnd       x59       0
 LI bnd       x60       0
 LI bnd       x61       0
 LI bnd       x62       0
 LI bnd       x63       0
 LI bnd       x64       0
 LI bnd       x65       0
 LI bnd       x66       0
 LI bnd       x67       0
 LI bnd       x68       0
 LI bnd       x69       0
 LI bnd       x70       0
ENDATA
